11697.0 
11734.0 
11791.0 
11734.0 
11764.0 
11720.0 
11883.0 
11744.0 
11743.0 
11689.0 
11716.0 
11796.0 
11711.0 
11733.0 
11805.0 
11843.0 
11877.0 
11800.0 
11776.0 
11723.0 
11781.0 
11811.0 
11760.0 
11901.0 
11886.0 
11818.0 
11774.0 
11811.0 
11787.0 
11603.0 
11659.0 
